NAME          COPTPROB
OBJSENSE
  MIN
ROWS
 N  __OBJ___
 L  C41     
 L  C76     
 L  C199    
 L  C203    
 L  C343    
 L  C730    
 L  C833    
 L  C1023   
 L  C1129   
COLUMNS
    MARKER    'MARKER'                 'INTORG'
    x104      __OBJ___  -1
    x104      C76       1
    x104      C343      1
    x104      C833      1
    x137      __OBJ___  -1
    x137      C199      1
    x137      C343      1
    x137      C730      1
    x174      __OBJ___  -1
    x174      C76       1
    x174      C1129     1
    x219      __OBJ___  -1
    x219      C203      1
    x219      C833      1
    x401      __OBJ___  -1
    x401      C41       1
    x401      C1023     1
    x498      __OBJ___  -1
    x498      C203      1
    x498      C1023     1
    x526      __OBJ___  -1
    x526      C199      1
    x526      C1129     1
    x563      __OBJ___  -1
    x563      C41       1
    x563      C730      1
    MARKER    'MARKER'                 'INTEND'
RHS
    RHS       __OBJ___  335
    RHS       C41       1
    RHS       C76       1
    RHS       C199      1
    RHS       C203      1
    RHS       C343      1
    RHS       C730      1
    RHS       C833      1
    RHS       C1023     1
    RHS       C1129     1
BOUNDS
 UP BOUND     x104      1
 UP BOUND     x137      1
 UP BOUND     x174      1
 UP BOUND     x219      1
 UP BOUND     x401      1
 UP BOUND     x498      1
 UP BOUND     x526      1
 UP BOUND     x563      1
ENDATA
